k = 30;
b = 15;
AtomicConstraints =  [|
	2, 1|
	2, 8|
	2, 9|
	2, 10|
	2, 11|
	2, 12|
	2, 13|
	2, 14|
	2, 15|
	2, 16|
	2, 17|
	2, 21|
	2, 22|
	2, 23|
	2, 24|
	2, 25|
	3, 1|
	3, 2|
	3, 8|
	3, 9|
	3, 10|
	3, 11|
	3, 12|
	3, 13|
	3, 14|
	3, 15|
	3, 16|
	3, 17|
	3, 21|
	3, 22|
	3, 23|
	3, 24|
	3, 25|
	4, 1|
	4, 2|
	4, 8|
	4, 9|
	4, 10|
	4, 11|
	4, 12|
	4, 13|
	4, 14|
	4, 15|
	4, 16|
	4, 17|
	4, 21|
	4, 22|
	4, 23|
	4, 24|
	4, 25|
	5, 1|
	5, 8|
	5, 9|
	5, 10|
	5, 11|
	5, 12|
	5, 13|
	5, 14|
	5, 15|
	5, 16|
	5, 17|
	6, 1|
	6, 5|
	6, 8|
	6, 9|
	6, 10|
	6, 11|
	6, 12|
	6, 13|
	6, 14|
	6, 15|
	6, 16|
	6, 17|
	7, 1|
	7, 5|
	7, 8|
	7, 9|
	7, 10|
	7, 11|
	7, 12|
	7, 13|
	7, 14|
	7, 15|
	7, 16|
	7, 17|
	8, 10|
	9, 10|
	11, 1|
	11, 8|
	11, 9|
	11, 10|
	11, 14|
	11, 16|
	11, 17|
	12, 1|
	12, 8|
	12, 9|
	12, 10|
	12, 11|
	12, 14|
	12, 15|
	12, 16|
	12, 17|
	13, 1|
	13, 8|
	13, 9|
	13, 10|
	13, 11|
	13, 12|
	13, 14|
	13, 15|
	13, 16|
	13, 17|
	14, 1|
	14, 8|
	14, 9|
	14, 10|
	14, 16|
	14, 17|
	15, 1|
	15, 8|
	15, 9|
	15, 10|
	15, 14|
	15, 16|
	15, 17|
	16, 1|
	16, 8|
	16, 9|
	16, 10|
	17, 1|
	17, 8|
	17, 9|
	17, 10|
	17, 16|
	18, 19|
	20, 19|
	22, 21|
	22, 23|
	22, 24|
	22, 25|
	23, 21|
	23, 24|
	25, 21|
	25, 24|
	26, 28|
	27, 26|
	27, 28|
	29, 8|
	29, 9|
	29, 10|
	29, 18|
	29, 19|
	29, 20|
	29, 21|
	29, 22|
	29, 23|
	29, 24|
	29, 25|
	29, 26|
	29, 27|
	29, 28|
	30, 8|
	30, 9|
	30, 10|
	30, 18|
	30, 19|
	30, 20|
	30, 21|
	30, 22|
	30, 23|
	30, 24|
	30, 25|
	30, 26|
	30, 27|
	30, 28|];
DisjunctiveConstraints =  [];
SoftAtomicConstraints =  [|
4, 3|
7, 6|
9, 8|
15, 11|
18, 20|
21, 24|
23, 25|
29, 30|];
DirectSuccessors =  [];